100
150
99
98
98
98
96
92
92
91
89
87
86
86
85
85
82
81
81
80
80
77
77
76
76
75
74
74
74
73
71
71
69
69
68
68
66
66
65
64
63
63
63
62
61
59
59
57
56
55
54
54
53
53
53
51
50
50
49
49
49
48
48
47
47
46
44
44
44
43
42
41
36
36
36
36
36
35
33
33
32
32
32
32
30
30
30
30
29
28
28
28
25
25
25
24
24
22
22
22
20
20
